Cost: 509
0-5-37-15-13-27-0
0-16-49-23-41-42-22-0
0-30-28-21-48-29-0
0-3-44-32-9-0
0-34-46-8-19-35-0
0-26-12-40-17-0
0-4-2-33-6-0
0-10-38-11-14-0
Cost: 509
0-5-37-15-13-27-0
0-16-49-23-41-42-22-0
0-30-28-21-48-29-0
0-3-44-32-9-0
0-34-46-8-19-35-0
0-26-12-40-17-0
0-4-2-33-6-0
0-10-38-11-14-0
Cost: 509
0-5-37-15-13-27-0
0-16-49-23-41-42-22-0
0-30-28-21-48-29-0
0-3-44-32-9-0
0-34-46-8-19-35-0
0-26-12-40-17-0
0-4-2-33-6-0
0-10-38-11-14-0
Cost: 509
0-5-37-15-13-27-0
0-16-49-23-41-42-22-0
0-30-28-21-48-29-0
0-3-44-32-9-0
0-34-46-8-19-35-0
0-26-12-40-17-0
0-4-2-33-6-0
0-10-38-11-14-0
Cost: 509
0-5-37-15-13-27-0
0-16-49-23-41-42-22-0
0-30-28-21-48-29-0
0-3-44-32-9-0
0-34-46-8-19-35-0
0-26-12-40-17-0
0-4-2-33-6-0
0-10-38-11-14-0
Cost: 509
0-5-37-15-13-27-0
0-16-49-23-41-42-22-0
0-30-28-21-48-29-0
0-3-44-32-9-0
0-34-46-8-19-35-0
0-26-12-40-17-0
0-4-2-33-6-0
0-10-38-11-14-0
Cost: 509
0-5-37-15-13-27-0
0-16-49-23-41-42-22-0
0-30-28-21-48-29-0
0-3-44-32-9-0
0-34-46-8-19-35-0
0-26-12-40-17-0
0-4-2-33-6-0
0-10-38-11-14-0
Cost: 509
0-5-37-15-13-27-0
0-16-49-23-41-42-22-0
0-30-28-21-48-29-0
0-3-44-32-9-0
0-34-46-8-19-35-0
0-26-12-40-17-0
0-4-2-33-6-0
0-10-38-11-14-0
Cost: 509
0-5-37-15-13-27-0
0-16-49-23-41-42-22-0
0-30-28-21-48-29-0
0-3-44-32-9-0
0-34-46-8-19-35-0
0-26-12-40-17-0
0-4-2-33-6-0
0-10-38-11-14-0
Cost: 509
0-5-37-15-13-27-0
0-16-49-23-41-42-22-0
0-30-28-21-48-29-0
0-3-44-32-9-0
0-34-46-8-19-35-0
0-26-12-40-17-0
0-4-2-33-6-0
0-10-38-11-14-0
Cost: 509
0-5-37-15-13-27-0
0-16-49-23-41-42-22-0
0-30-28-21-48-29-0
0-3-44-32-9-0
0-34-46-8-19-35-0
0-26-12-40-17-0
0-4-2-33-6-0
0-10-38-11-14-0
Cost: 509
0-5-37-15-13-27-0
0-16-49-23-41-42-22-0
0-30-28-21-48-29-0
0-3-44-32-9-0
0-34-46-8-19-35-0
0-26-12-40-17-0
0-4-2-33-6-0
0-10-38-11-14-0
Cost: 509
0-5-37-15-13-27-0
0-16-49-23-41-42-22-0
0-30-28-21-48-29-0
0-3-44-32-9-0
0-34-46-8-19-35-0
0-26-12-40-17-0
0-4-2-33-6-0
0-10-38-11-14-0
Cost: 509
0-5-37-15-13-27-0
0-16-49-23-41-42-22-0
0-30-28-21-48-29-0
0-3-44-32-9-0
0-34-46-8-19-35-0
0-26-12-40-17-0
0-4-2-33-6-0
0-10-38-11-14-0
Cost: 509
0-5-37-15-13-27-0
0-16-49-23-41-42-22-0
0-30-28-21-48-29-0
0-3-44-32-9-0
0-34-46-8-19-35-0
0-26-12-40-17-0
0-4-2-33-6-0
0-10-38-11-14-0
Cost: 509
0-5-37-15-13-27-0
0-16-49-23-41-42-22-0
0-30-28-21-48-29-0
0-3-44-32-9-0
0-34-46-8-19-35-0
0-26-12-40-17-0
0-4-2-33-6-0
0-10-38-11-14-0
Cost: 509
0-5-37-15-13-27-0
0-16-49-23-41-42-22-0
0-30-28-21-48-29-0
0-3-44-32-9-0
0-34-46-8-19-35-0
0-26-12-40-17-0
0-4-2-33-6-0
0-10-38-11-14-0
Cost: 509
0-5-37-15-13-27-0
0-16-49-23-41-42-22-0
0-30-28-21-48-29-0
0-3-44-32-9-0
0-34-46-8-19-35-0
0-26-12-40-17-0
0-4-2-33-6-0
0-10-38-11-14-0
Cost: 509
0-5-37-15-13-27-0
0-16-49-23-41-42-22-0
0-30-28-21-48-29-0
0-3-44-32-9-0
0-34-46-8-19-35-0
0-26-12-40-17-0
0-4-2-33-6-0
0-10-38-11-14-0
Cost: 509
0-5-37-15-13-27-0
0-16-49-23-41-42-22-0
0-30-28-21-48-29-0
0-3-44-32-9-0
0-34-46-8-19-35-0
0-26-12-40-17-0
0-4-2-33-6-0
0-10-38-11-14-0
Cost: 509
0-5-37-15-13-27-0
0-16-49-23-41-42-22-0
0-30-28-21-48-29-0
0-3-44-32-9-0
0-34-46-8-19-35-0
0-26-12-40-17-0
0-4-2-33-6-0
0-10-38-11-14-0
Cost: 509
0-5-37-15-13-27-0
0-16-49-23-41-42-22-0
0-30-28-21-48-29-0
0-3-44-32-9-0
0-34-46-8-19-35-0
0-26-12-40-17-0
0-4-2-33-6-0
0-10-38-11-14-0
Cost: 509
0-4-2-33-6-0
0-9-32-44-3-0
0-26-12-40-17-0
0-29-48-21-28-30-0
0-16-49-23-41-42-22-0
0-10-38-11-14-0
0-5-37-15-13-27-0
0-34-46-8-19-35-0
Cost: 509
0-5-37-15-13-27-0
0-16-49-23-41-42-22-0
0-30-28-21-48-29-0
0-3-44-32-9-0
0-34-46-8-19-35-0
0-26-12-40-17-0
0-4-2-33-6-0
0-10-38-11-14-0
Cost: 509
0-5-37-15-13-27-0
0-16-49-23-41-42-22-0
0-30-28-21-48-29-0
0-3-44-32-9-0
0-34-46-8-19-35-0
0-26-12-40-17-0
0-4-2-33-6-0
0-10-38-11-14-0
Cost: 509
0-5-37-15-13-27-0
0-16-49-23-41-42-22-0
0-30-28-21-48-29-0
0-3-44-32-9-0
0-34-46-8-19-35-0
0-26-12-40-17-0
0-4-2-33-6-0
0-10-38-11-14-0
Cost: 509
0-27-13-15-37-5-0
0-16-49-23-41-42-22-0
0-3-44-32-9-0
0-35-19-8-46-34-0
0-29-48-21-28-30-0
0-4-2-33-6-0
0-17-40-12-26-0
0-10-38-11-14-0
Cost: 0
Cost: 515
0-40-12-26-0
0-9-32-44-3-0
0-5-37-15-13-27-0
0-29-48-21-28-30-0
0-10-38-11-7-0
0-22-42-41-23-49-16-17-0
0-6-33-2-4-0
0-46-35-14-19-34-0
Cost: 509
0-27-13-15-37-5-0
0-26-12-40-17-0
0-3-44-32-9-0
0-35-19-8-46-34-0
0-22-42-41-23-49-16-0
0-6-33-2-4-0
0-10-38-11-14-0
0-29-48-21-28-30-0
Cost: 509
0-14-11-38-10-0
0-16-49-23-41-42-22-0
0-35-19-8-46-34-0
0-30-28-21-48-29-0
0-4-2-33-6-0
0-9-32-44-3-0
0-17-40-12-26-0
0-5-37-15-13-27-0
